(set-info :Origin "This instance was generated by: BanditFuzz-- an RL fuzzer for SMT solvers" )
(set-info :Author "Joe Scott, Fed Mora, Vijay Ganesh" )
(set-info :Contact "Joe Scott, joseph.scott@uwaterloo.ca")
; solvers/z3.sh
; 	time => 0.16620326042175293
; 	answer => err
; solvers/bitwuzla.sh
; 	time => 0.10573267936706543
; 	answer => err
; solvers/cvc4.sh
; 	time => 0.21514534950256348
; 	answer => err
(set-logic QF_BV)
(declare-const bool_0 Bool)
(declare-const bool_1 Bool)
(declare-const bool_2 Bool)
(declare-const bool_3 Bool)
(declare-const bool_4 Bool)
(declare-const bv_0 (_ BitVec 8))
(declare-const bv_1 (_ BitVec 8))
(declare-const bv_2 (_ BitVec 8))
(declare-const bv_3 (_ BitVec 8))
(declare-const bv_4 (_ BitVec 8))
(assert (=> (bvugt (bvand #x000000d6  bv_4) (bvsdiv #x000000e8  bv_1)) (bvsge (bvurem #x000000bb  #x000000ee ) (bvudiv bv_3 bv_3))))
(assert (bvslt (bvsub (bvsrem bv_2 bv_4) (bvsdiv #x0000005c  #x000000c4 )) (bvashr (bvand bv_4 bv_0) (bvadd bv_4 #x0000004c ))))
(assert (bvslt (bvor (bvmul bv_0 #x00000034 ) (bvxor bv_3 #x00000005 )) (bvshl (bvsub #x00000073  bv_4) (bvxor bv_0 bv_1))))
(assert (bvslt (bvmul (bvsrem bv_1 #x00000005 ) (bvshl #x000000a9  bv_0)) (bvor (bvshl bv_2 bv_1) (bvsmod #x0000007d  bv_2))))
(assert (=> (bvuge (bvxor #x000000a5  #x00000000 ) (bvsdiv bv_1 bv_2)) (bvugt (bvurem #x00000098  bv_2) (bvsub #x000000a0  #x000000df ))))
(check-sat)
(exit)
